
Gurobi 9.1.2 (win64, Java) logging started Sat Nov  6 21:16:50 2021

Academic license - for non-commercial use only - expires 2022-10-30
Gurobi Optimizer version 9.1.2 build v9.1.2rc0 (win64)
Thread count: 6 physical cores, 12 logical processors, using up to 12 threads
Optimize a model with 60 rows, 800 columns and 1600 nonzeros
Model fingerprint: 0x58562af0
Variable types: 0 continuous, 800 integer (800 binary)
Coefficient statistics:
  Matrix range     [1e+00, 1e+03]
  Objective range  [4e+02, 1e+03]
  Bounds range     [1e+00, 1e+00]
  RHS range        [1e+00, 1e+03]
Found heuristic solution: objective 15381.000000
Presolve removed 6 rows and 460 columns
Presolve time: 0.02s
Presolved: 54 rows, 340 columns, 679 nonzeros
Variable types: 0 continuous, 340 integer (340 binary)
Presolved: 54 rows, 340 columns, 679 nonzeros


Root relaxation: objective 2.085910e+04, 226 iterations, 0.00 seconds

    Nodes    |    Current Node    |     Objective Bounds      |     Work
 Expl Unexpl |  Obj  Depth IntInf | Incumbent    BestBd   Gap | It/Node Time

     0     0 20859.0994    0   23 15381.0000 20859.0994  35.6%     -    0s
H    0     0                    19149.000000 20859.0994  8.93%     -    0s
H    0     0                    19834.000000 20859.0994  5.17%     -    0s
     0     0 20754.5788    0   40 19834.0000 20754.5788  4.64%     -    0s
     0     0 20719.4652    0   55 19834.0000 20719.4652  4.46%     -    0s
H    0     0                    19885.000000 20719.4652  4.20%     -    0s
     0     0 20718.9656    0   58 19885.0000 20718.9656  4.19%     -    0s
     0     0 20710.5939    0   59 19885.0000 20710.5939  4.15%     -    1s
     0     0 20709.5263    0   60 19885.0000 20709.5263  4.15%     -    1s
H    0     0                    20150.000000 20709.5263  2.78%     -    1s
     0     0 20709.5093    0   57 20150.0000 20709.5093  2.78%     -    1s
     0     0 20695.6904    0   69 20150.0000 20695.6904  2.71%     -    1s
H    0     0                    20153.000000 20695.6904  2.69%     -    1s
     0     0 20694.5426    0   60 20153.0000 20694.5426  2.69%     -    2s
     0     0 20694.2053    0   59 20153.0000 20694.2053  2.69%     -    2s
     0     0 20694.0481    0   56 20153.0000 20694.0481  2.68%     -    2s
     0     0 20687.8180    0   72 20153.0000 20687.8180  2.65%     -    2s
     0     0 20686.1028    0   72 20153.0000 20686.1028  2.65%     -    2s
     0     0 20686.0413    0   77 20153.0000 20686.0413  2.64%     -    3s
     0     0 20677.8075    0   73 20153.0000 20677.8075  2.60%     -    3s
     0     0 20677.3724    0   77 20153.0000 20677.3724  2.60%     -    3s
     0     0 20676.9649    0   85 20153.0000 20676.9649  2.60%     -    3s
     0     0 20676.9273    0   85 20153.0000 20676.9273  2.60%     -    3s
     0     0 20673.6942    0   65 20153.0000 20673.6942  2.58%     -    3s
     0     0 20672.3124    0   81 20153.0000 20672.3124  2.58%     -    3s
     0     0 20672.0516    0   84 20153.0000 20672.0516  2.58%     -    3s
     0     0 20668.4060    0   89 20153.0000 20668.4060  2.56%     -    3s
     0     0 20668.2132    0   89 20153.0000 20668.2132  2.56%     -    3s
     0     0 20662.4576    0   80 20153.0000 20662.4576  2.53%     -    3s
     0     0 20661.2495    0   91 20153.0000 20661.2495  2.52%     -    3s
     0     0 20660.7890    0   82 20153.0000 20660.7890  2.52%     -    3s
     0     0 20660.7690    0   83 20153.0000 20660.7690  2.52%     -    3s
     0     0 20655.8970    0   99 20153.0000 20655.8970  2.50%     -    3s
     0     0 20655.6667    0   87 20153.0000 20655.6667  2.49%     -    3s
     0     0 20654.1157    0  103 20153.0000 20654.1157  2.49%     -    4s
     0     0 20654.1157    0  101 20153.0000 20654.1157  2.49%     -    4s
     0     2 20654.1157    0  101 20153.0000 20654.1157  2.49%     -    4s
H   21    24                    20640.000000 20650.9947  0.05%  52.9    4s

Cutting planes:
  Gomory: 5
  Cover: 37
  Clique: 4
  MIR: 59
  StrongCG: 36
  Zero half: 1

Explored 137 nodes (4977 simplex iterations) in 4.72 seconds
Thread count was 12 (of 12 available processors)

Solution count 7: 20640 20153 20150 ... 15381

Optimal solution found (tolerance 1.00e-04)
Best objective 2.064000000000e+04, best bound 2.064000000000e+04, gap 0.0000%
